(declare-const X String)
; www\x2Efreescratchandwin\x2Ecom\w+Port.*User-Agent\x3AToolbarkit
(assert (str.in_re X (re.++ (str.to_re "www.freescratchandwin.com") (re.+ (re.union (re.range "0" "9") (re.range "A" "Z") (re.range "a" "z") (str.to_re "_"))) (str.to_re "Port") (re.* re.allchar) (str.to_re "User-Agent:Toolbarkit\u{a}"))))
; whenu\x2Ecom\d+Agent\stoWebupdate\.cgithisHost\x3aconnection
(assert (str.in_re X (re.++ (str.to_re "whenu.com\u{1b}") (re.+ (re.range "0" "9")) (str.to_re "Agent") (re.union (str.to_re " ") (str.to_re "\u{9}") (str.to_re "\u{a}") (str.to_re "\u{c}") (str.to_re "\u{d}")) (str.to_re "toWebupdate.cgithisHost:connection\u{a}"))))
; User-Agent\x3A\d+moreKontikiHost\x3a
(assert (str.in_re X (re.++ (str.to_re "User-Agent:") (re.+ (re.range "0" "9")) (str.to_re "moreKontikiHost:\u{a}"))))
(check-sat)
